81
0
8
13
38
19
16
30
35
0
15
0
34
48
0
80
52
34
17
21
24
16
27
17
48
12
56
31
0
59
28
59
46
21
14
48
28
55
23
94
61
27
26
0
18
20
52
46
32
34
44
0
23
54
79
30
27
28
0
0
9
45
29
25
13
55
10
46
81
23
19
33
0
28
9
77
30
25
65
47
35
0
53
34
55
38
33
0
58
24
27
17
22
93
27
0
68
9
26
54
